c
c start with comments
c
p cnf 28 16
-5 -25 -6 -2 0
-2 -9 -15 0
-15 28 19 12 0
-22 11 7 0
24 28 27 0
7 -5 16 4 0
-17 -26 0
-19 3 16 -19 -5 0
-18 -10 -8 13 -6 -11 0
-7 1 0
26 15 0
-9 -19 -10 5 16 -21 0
-18 -20 9 0
2 22 0
-6 7 20 8 27 23 0
-4 14 10 0